100 10
450 260
441 349
212 705
104 189
435 660
235 640
304 524
445 269
527 743
384 59
692 829
488 539
419 166
354 919
198 479
319 316
236 607
909 698
283 429
611 338
313 237
257 423
375 450
119 502
544 426
747 426
527 350
266 610
272 861
642 629
454 507
378 984
832 787
581 959
351 674
572 158
330 186
437 583
209 549
351 184
428 390
254 249
547 186
484 397
677 49
692 870
227 296
486 376
721 231
707 680
859 209
254 351
117 712
406 347
442 950
521 638
259 719
506 444
230 902
484 112
560 290
934 426
780 413
297 331
410 864
607 147
765 721
735 537
536 666
254 490
221 720
469 341
384 287
646 706
403 875
573 341
519 760
686 252
827 850
705 357
401 444
693 209
379 316
94 115
255 757
187 536
322 342
932 86
192 630
875 9
420 620
399 286
880 621
420 445
609 522
483 615
276 677
234 475
257 621
244 738
